
  32    4
  10   10   10   10

   0   0   0   0   0   7 2 3 5 7 8 9 10 
   9  10  10  10  10   5 15 13 12 11 6 
   3  10  10  10  10   2 15 4 
   2  10  10  10  10   4 16 14 13 12 
   8  10  10  10  10   3 16 14 13 
  10  10  10  10  10   4 21 19 16 14 
   3  10  10  10  10   3 24 15 13 
   6  10  10  10  10   5 24 20 19 17 16 
   8  10  10  10  10   5 24 22 20 19 16 
   9  10  10  10  10   3 24 18 13 
  10  10  10  10  10   5 26 20 19 18 17 
   5  10  10  10  10   4 24 20 18 17 
   6  10  10  10  10   4 22 21 20 19 
   7  10  10  10  10   4 24 23 20 17 
  10  10  10  10  10   3 22 21 16 
   2  10  10  10  10   2 26 18 
  10  10  10  10  10   3 31 25 22 
   6  10  10  10  10   3 30 25 23 
   6  10  10  10  10   3 31 30 23 
  10  10  10  10  10   4 31 29 28 25 
   4  10  10  10  10   4 30 29 28 25 
   4  10  10  10  10   4 30 29 28 27 
   4  10  10  10  10   3 29 28 27 
   1  10  10  10  10   3 29 28 27 
   1  10  10  10  10   1 27 
   4  10  10  10  10   1 27 
   8  10  10  10  10   1 32
   4  10  10  10  10   1 32
   4  10  10  10  10   1 32
   2  10  10  10  10   1 32
   3  10  10  10  10   1 32
   0   0   0   0   0   0 
